sat

(objectives
 ((bvadd PriceProv8 (bvadd PriceProv7 (bvadd PriceProv6 (bvadd PriceProv5 (bvadd PriceProv4 (bvadd PriceProv3 (bvadd PriceProv1 PriceProv2))))))) (_ bv7191 32))
)
;; statistics
(
 :cnf-variables 1031
 :cnf-literals 3120
 :cnf-clauses 1415
 :sat-checks 11
 :sat-restarts 51
 :sat-decisions 68820
 :sat-random-decisions 30
 :sat-propagations 151167586
 :sat-theory-propagations 0
 :sat-watched-clauses-visited 182742940
 :sat-binary-watched-clauses-visited 102432344
 :sat-conflicts 33607
 :sat-theory-conflicts 0
 :theory-necessary-interface-equalities 0
 :theory-extra-interface-equalities 0
 :euf-total-calls 72199
 :euf-complete-calls 8
 :euf-conflicts 0
 :euf-implications 0
 :euf-explanations 0
 :euf-egraph-nodes-created 23476
 :euf-egraph-nodes-deleted 20638
 :euf-num-asserted-equalities 1352480
 :euf-num-asserted-inequalities 731496
 :euf-num-merges 3134593
 :euf-num-merges-undone 3134593
 :euf-num-atoms-retold 4832
 :la-total-calls 72199
 :la-complete-calls 8
 :la-conflicts 0
 :la-implications 0
 :la-explanations 0
 :la-num-equalities-split 0
 :la-num-tableau-rows 0
 :la-num-tableau-variables 0
 :bv-total-calls 72199
 :bv-complete-calls 8
 :bv-conflicts 0
 :bv-implications 0
 :bv-explanations 0
 :fp-total-calls 72199
 :fp-complete-calls 8
 :fp-conflicts 0
 :fp-implications 0
 :fp-explanations 0
 :arr-total-calls 72199
 :arr-complete-calls 8
 :arr-conflicts 0
 :arr-implications 0
 :arr-explanations 0
 :arr-write-lemmas-added 0
 :arr-row-lemmas-added 0
 :arr-ext-lemmas-added 0
 :arr-const-lemmas-added 0
 :na-total-calls 72199
 :na-complete-calls 8
 :na-conflicts 0
 :na-implications 0
 :na-explanations 0
 :na-num_nonlinear_multiplications 0
 :na-num_axiom_checks 0
 :na-num_zero_lemmas 0
 :na-num_sign_lemmas 0
 :na-num_neutral_lemmas 0
 :na-num_proportionality_lemmas 0
 :na-num_bound_lemmas 0
 :na-num_tangent_lemmas 0
 :na-num_monotonicity_lemmas 0
 :na-num_sat_checks 0
 :na-axiom_check_time 0.000
 :na-sat_check_time 0.000
 :time-seconds 36.586
 :memory-mb 80.635
)
